
Gurobi 9.5.1 (linux64) logging started Tue Jun  7 14:11:19 2022

Set parameter LogFile to value "../results/logs/log_Gowalla_edges_3_50_2022_06_07_11_52.log"
Gurobi Optimizer version 9.5.1 build v9.5.1rc2 (linux64)
Thread count: 8 physical cores, 8 logical processors, using up to 8 threads
Optimize a model with 20527 rows, 393182 columns and 191427 nonzeros
Model fingerprint: 0x1470c37c
Variable types: 0 continuous, 393182 integer (393182 binary)
Coefficient statistics:
  Matrix range     [1e+00, 3e+00]
  Objective range  [1e+00, 1e+00]
  Bounds range     [1e+00, 1e+00]
  RHS range        [1e+00, 5e+01]
Found heuristic solution: objective 106417.00000
Presolve removed 12350 rows and 381575 columns
Presolve time: 0.26s
Presolved: 8177 rows, 11607 columns, 33883 nonzeros
Found heuristic solution: objective 106507.00000
Variable types: 0 continuous, 11607 integer (10855 binary)

Root relaxation: objective 1.073652e+05, 4997 iterations, 0.06 seconds (0.08 work units)

    Nodes    |    Current Node    |     Objective Bounds      |     Work
 Expl Unexpl |  Obj  Depth IntInf | Incumbent    BestBd   Gap | It/Node Time

     0     0 107365.180    0 1020 106507.000 107365.180  0.81%     -    0s
H    0     0                    106569.00000 107365.180  0.75%     -    0s
H    0     0                    106571.00000 107365.180  0.75%     -    0s
H    0     0                    106589.00000 107363.014  0.73%     -    0s
H    0     0                    106591.00000 107363.014  0.72%     -    0s
     0     0 106761.517    0  384 106591.000 106761.517  0.16%     -    0s
H    0     0                    106645.00000 106761.517  0.11%     -    0s
     0     0 106756.017    0  368 106645.000 106756.017  0.10%     -    0s
     0     0 106684.464    0  185 106645.000 106684.464  0.04%     -    1s
     0     0 106682.686    0  175 106645.000 106682.686  0.04%     -    1s
     0     0 106675.424    0  136 106645.000 106675.424  0.03%     -    1s
H    0     0                    106647.00000 106675.424  0.03%     -    1s
     0     0 106658.841    0   88 106647.000 106658.841  0.01%     -    1s
     0     0 106658.591    0   86 106647.000 106658.591  0.01%     -    1s
     0     0 106656.000    0   27 106647.000 106656.000  0.01%     -    2s
H    0     0                    106653.00000 106656.000  0.00%     -    2s
     0     0 106656.000    0   27 106653.000 106656.000  0.00%     -    2s
     0     0 106656.000    0   18 106653.000 106656.000  0.00%     -    2s
     0     0 106656.000    0  651 106653.000 106656.000  0.00%     -    2s
H    0     0                    106656.00000 106656.000  0.00%     -    2s

Cutting planes:
  Gomory: 115
  Cover: 86
  Implied bound: 4
  Clique: 1
  MIR: 355
  StrongCG: 5
  GUB cover: 293
  Zero half: 45
  RLT: 19

Explored 1 nodes (8949 simplex iterations) in 2.61 seconds (2.00 work units)
Thread count was 8 (of 8 available processors)

Solution count 10: 106656 106653 106647 ... 106417

Optimal solution found (tolerance 0.00e+00)
Best objective 1.066560000000e+05, best bound 1.066560000000e+05, gap 0.0000%
